c
c start with comments
c
p cnf 25 16
-6 9 19 0
-22 14 10 -7 0
-23 -8 -8 10 -19 0
-15 -26 0
4 -18 0
5 -11 2 0
-13 18 -19 0
-22 -4 -6 0
-9 3 3 3 0
-24 -21 0
-17 23 0
16 25 0
-3 -20 -19 0
20 24 0
-11 -4 15 -2 9 0
12 -4 13 0